results/real/sos1/jan_24_182.out
Version identifier: 22.1.1.0 | 2022-11-28 | 9160aff4d
CPXPARAM_Threads                                 1
CPXPARAM_MIP_Strategy_VariableSelect             3
CPXPARAM_TimeLimit                               599.99999294199995
1 of 1 MIP starts provided solutions.
MIP start 'm1' defined initial solution with objective 91.0000.
Tried aggregator 1 time.
MIP Presolve eliminated 195 rows and 546 columns.
MIP Presolve modified 42 coefficients.
Reduced MIP has 910 rows, 1820 columns, and 28061 nonzeros.
Reduced MIP has 1820 binaries, 0 generals, 0 SOSs, and 0 indicators.
Presolve time = 0.02 sec. (48.57 ticks)
Probing time = 0.01 sec. (8.41 ticks)
Tried aggregator 1 time.
Detecting symmetries...
MIP Presolve modified 8 coefficients.
Reduced MIP has 910 rows, 1820 columns, and 28241 nonzeros.
Reduced MIP has 1820 binaries, 0 generals, 0 SOSs, and 0 indicators.
Presolve time = 0.02 sec. (38.78 ticks)
Probing time = 0.00 sec. (8.43 ticks)
Clique table members: 543.
MIP emphasis: balance optimality and feasibility.
MIP search method: dynamic search.
Parallel mode: none, using 1 thread.
Root relaxation solution time = 0.01 sec. (11.15 ticks)

        Nodes                                         Cuts/
   Node  Left     Objective  IInf  Best Integer    Best Bound    ItCnt     Gap

*     0+    0                           91.0000    16653.0000              --- 
*     0     0      integral     0      182.0000      182.0000      302    0.00%
Elapsed time = 0.06 sec. (130.45 ticks, tree = 0.00 MB, solutions = 2)

Root node processing (before b&c):
  Real time             =    0.06 sec. (130.54 ticks)
Sequential b&c:
  Real time             =    0.00 sec. (0.00 ticks)
                          ------------
Total (root+branch&cut) =    0.06 sec. (130.54 ticks)
Primal:	182
Dual:	182
Status:	Optimal
Time:	0.06
Sequence:
	6
	1
	5
	9
	6
	9
	9
	9
	6
	5
	0
	9
	9
	5
	6
	9
	9
	9
	9
	6
	9
	10
	9
	6
	0
	9
	9
	6
	9
	9
	9
	6
	9
	5
	9
	9
	6
	9
	9
	9
	6
	9
	9
	2
	6
	9
	5
	4
	0
	5
	4
	0
	5
	1
	9
	6
	5
	0
	4
	6
	1
	5
	9
	1
	0
	1
	9
	6
	10
	9
	0
	6
	9
	9
	1
	6
	9
	9
	9
	6
	9
	2
	9
	9
	4
	6
	9
	5
	9
	5
	6
	9
	4
	9
	4
	6
	9
	9
	4
	4
	9
	6
	9
	9
	9
	9
	6
	9
	4
	4
	9
	9
	6
	9
	9
	9
	9
	6
	1
	1
	4
	2
	6
	3
	5
	2
	9
	6
	5
	9
	9
	9
	5
	5
	9
	6
	10
	1
	9
	9
	9
	9
	9
	9
	9
	6
	9
	9
	9
	6
	9
	0
	9
	6
	9
	9
	9
	9
	0
	9
	4
	9
	4
	4
	2
	4
	4
	2
	6
	9
	9
	2
	4
	6
	2
	9
	10
	6
	2
	1
	1
	6
